Route #1: 7 37 16 2 13 39 14 42 
Route #2: 41 25 51 15 8 5 
Route #3: 1 20 11 30 29 53 
Route #4: 6 56 32 22 
Route #5: 4 35 12 49 33 21 36 47 
Route #6: 10 55 28 9 45 43 40 
Route #7: 27 18 24 52 54 48 38 
Route #8: 34 44 23 26 19 
Route #9: 46 31 17 50 3 
cost 1790.8
execution_time 19.484
